Traveling Salesman Problem/TSP_generados/Aleatorio1621103336_10.tsp
NAME: Aleatorio1621103336_10.tsp
COMMENT: Randomly generated scenario
TYPE: TSP
DIMENSION: 10
EDGE_WEIGHT_TYPE: ATT
NODE_COORD_SECTION
1 36.07 49.5
2 9.24 36.07
3 45.26 21.89
4 36.72 41.9
5 37.08 40.27
6 7.96 11.24
7 9.59 26.26
8 4.51 27.06
9 23.71 28.76
10 35.32 46.2
