Traveling Salesman Problem/TSP_generados/Aleatorio1621103336_10.opt.tour
NAME: Aleatorio1621103336_10.opt.tour
COMMENT: Optimal solution for Aleatorio1621103336_10 (136.30140500803043)
TYPE: TOUR
DIMENSION: 10
TOUR_SECTION
1 10 4 5 3 9 6 7 8 2
-1
EOF
